Route #1: 2 21 22 4 25 
Route #2: 42 15 38 43 13 
Route #3: 5 18 8 46 17 
Route #4: 28 12 40 20 1 
Route #5: 36 11 19 49 48 
Route #6: 33 29 3 50 24 
Route #7: 27 31 30 9 34 35 
Route #8: 45 47 7 10 32 
Route #9: 14 44 16 6 37 
Route #10: 39 23 41 26 
Objective: 84451.7
